; benchmark generated from python API
(set-info :status unknown)
(declare-fun x_epoch () Int)
(declare-fun x_plus_epoch () Int)
(declare-fun x_plus_month () Int)
(declare-fun x_plus_year () Int)
(declare-fun x_plus_day () Int)
(assert
 (>= x_epoch (- 36584)))
(assert
 (<= x_epoch 36829))
(assert
 (>= x_epoch 8371))
(assert
 (>= x_plus_epoch (- 36584)))
(assert
 (<= x_plus_epoch 36829))
(assert
 (let (($x2253 (= x_plus_month 11)))
 (let (($x683 (= x_plus_month 9)))
 (let (($x662 (= x_plus_month 6)))
 (let (($x219 (= x_plus_month 4)))
 (let ((?x569 (ite (or $x219 $x662 $x683 $x2253) 30 31)))
 (let (($x1863 (= (mod x_plus_year 400) 0)))
 (let (($x2371 (= (mod x_plus_year 4) 0)))
 (let (($x3443 (or (and $x2371 (and (distinct (mod x_plus_year 100) 0) true)) $x1863)))
 (let (($x2464 (= x_plus_month 2)))
 (let (($x1398 (>= x_plus_day 1)))
 (let (($x624 (<= x_plus_month 12)))
 (let (($x2904 (>= x_plus_month 1)))
 (let (($x664 (<= x_plus_year 2100)))
 (let (($x502 (>= x_plus_year 1900)))
 (and $x502 $x664 $x2904 $x624 $x1398 (<= x_plus_day (ite $x2464 (ite $x3443 29 28) ?x569))))))))))))))))))
(assert
 (let (($x1863 (= (mod x_plus_year 400) 0)))
 (let (($x2371 (= (mod x_plus_year 4) 0)))
 (let (($x3443 (or (and $x2371 (and (distinct (mod x_plus_year 100) 0) true)) $x1863)))
 (let (($x231 (= 2 x_plus_month)))
 (let ((?x616 (ite $x231 (ite $x3443 31 31) (ite (= 1 x_plus_month) (ite $x3443 0 0) 0))))
 (let (($x1141 (= 3 x_plus_month)))
 (let (($x94 (= 4 x_plus_month)))
 (let ((?x760 (ite $x94 (ite $x3443 91 90) (ite $x1141 (ite $x3443 60 59) ?x616))))
 (let (($x379 (= 5 x_plus_month)))
 (let (($x520 (= 6 x_plus_month)))
 (let ((?x3390 (ite $x520 (ite $x3443 152 151) (ite $x379 (ite $x3443 121 120) ?x760))))
 (let (($x2776 (= 7 x_plus_month)))
 (let (($x2594 (= 8 x_plus_month)))
 (let ((?x408 (ite $x2594 (ite $x3443 213 212) (ite $x2776 (ite $x3443 182 181) ?x3390))))
 (let (($x1139 (= 9 x_plus_month)))
 (let (($x699 (= 10 x_plus_month)))
 (let ((?x602 (ite $x699 (ite $x3443 274 273) (ite $x1139 (ite $x3443 244 243) ?x408))))
 (let (($x563 (= 11 x_plus_month)))
 (let (($x611 (= 12 x_plus_month)))
 (let ((?x290 (ite $x611 (ite $x3443 335 334) (ite $x563 (ite $x3443 305 304) ?x602))))
 (let ((?x3024 (+ (* 365 (- x_plus_year 1)) (div (- x_plus_year 1) 4))))
 (let ((?x1993 (+ (- ?x3024 (div (- x_plus_year 1) 100)) (div (- x_plus_year 1) 400))))
 (= x_plus_epoch (- (+ (+ ?x1993 ?x290) (- x_plus_day 1)) 730179)))))))))))))))))))))))))
(assert
 (let ((?x730 (+ x_epoch 730179)))
 (let ((?x557 (mod ?x730 146097)))
 (let ((?x512 (div ?x557 36524)))
 (let ((?x218 (ite (<= 4 ?x512) 3 ?x512)))
 (let ((?x685 (- ?x557 (* ?x218 36524))))
 (let ((?x414 (mod ?x685 1461)))
 (let ((?x263 (div ?x414 365)))
 (let ((?x118 (ite (<= 4 ?x263) 3 ?x263)))
 (let ((?x410 (+ (+ (* (div ?x730 146097) 400) (* ?x218 100)) (* (div ?x685 1461) 4))))
 (let ((?x98 (+ (+ ?x410 ?x118) 1)))
 (let (($x339 (or (and (= (mod ?x98 4) 0) (and (distinct (mod ?x98 100) 0) true)) (= (mod ?x98 400) 0))))
 (let ((?x406 (- ?x414 (* ?x118 365))))
 (let ((?x465 (ite $x339 31 31)))
 (let (($x463 (>= ?x406 ?x465)))
 (let ((?x645 (ite $x463 (+ (- ?x406 ?x465) 1) (+ (- ?x406 (ite $x339 0 0)) 1))))
 (let ((?x729 (ite $x339 60 59)))
 (let (($x810 (>= ?x406 ?x729)))
 (let ((?x435 (ite $x339 91 90)))
 (let (($x673 (>= ?x406 ?x435)))
 (let ((?x701 (ite $x673 (+ (- ?x406 ?x435) 1) (ite $x810 (+ (- ?x406 ?x729) 1) ?x645))))
 (let ((?x1415 (ite $x339 121 120)))
 (let (($x451 (>= ?x406 ?x1415)))
 (let ((?x208 (ite $x339 152 151)))
 (let (($x325 (>= ?x406 ?x208)))
 (let ((?x175 (ite $x325 (+ (- ?x406 ?x208) 1) (ite $x451 (+ (- ?x406 ?x1415) 1) ?x701))))
 (let ((?x363 (ite $x339 182 181)))
 (let (($x320 (>= ?x406 ?x363)))
 (let ((?x508 (ite $x339 213 212)))
 (let (($x120 (>= ?x406 ?x508)))
 (let ((?x541 (ite $x120 (+ (- ?x406 ?x508) 1) (ite $x320 (+ (- ?x406 ?x363) 1) ?x175))))
 (let ((?x738 (ite $x339 244 243)))
 (let (($x434 (>= ?x406 ?x738)))
 (let ((?x452 (ite $x339 274 273)))
 (let (($x1015 (>= ?x406 ?x452)))
 (let ((?x532 (ite $x1015 (+ (- ?x406 ?x452) 1) (ite $x434 (+ (- ?x406 ?x738) 1) ?x541))))
 (let ((?x134 (ite $x339 305 304)))
 (let (($x272 (>= ?x406 ?x134)))
 (let ((?x758 (ite $x339 335 334)))
 (let (($x692 (>= ?x406 ?x758)))
 (let ((?x2113 (ite $x692 (+ (- ?x406 ?x758) 1) (ite $x272 (+ (- ?x406 ?x134) 1) ?x532))))
 (let ((?x2599 (+ (* 0 12) 1)))
 (let ((?x250 (ite $x451 5 (ite $x673 4 (ite $x810 3 (ite $x463 2 1))))))
 (let ((?x2483 (ite $x434 9 (ite $x120 8 (ite $x320 7 (ite $x325 6 ?x250))))))
 (let ((?x516 (ite $x692 12 (ite $x272 11 (ite $x1015 10 ?x2483)))))
 (let ((?x524 (+ ?x516 ?x2599)))
 (let ((?x500 (- ?x524 1)))
 (let ((?x241 (+ (mod ?x500 12) 1)))
 (let ((?x523 (ite (or (= ?x241 4) (= ?x241 6) (= ?x241 9) (= ?x241 11)) 30 31)))
 (let (($x2372 (and (= (mod (+ ?x98 (+ 0 (div ?x500 12))) 4) 0) (and (distinct (mod (+ ?x98 (+ 0 (div ?x500 12))) 100) 0) true))))
 (let (($x445 (or $x2372 (= (mod (+ ?x98 (+ 0 (div ?x500 12))) 400) 0))))
 (let ((?x663 (ite (= ?x241 2) (ite $x445 29 28) ?x523)))
 (let (($x707 (> 1 ?x2113)))
 (let ((?x194 (ite $x707 1 (ite (> ?x2113 ?x663) ?x663 ?x2113))))
 (let ((?x1252 (ite (> 1 ?x194) 1 (ite (> ?x194 ?x663) ?x663 ?x194))))
 (let ((?x1712 (ite (= 2 ?x241) (ite $x445 31 31) (ite (= 1 ?x241) (ite $x445 0 0) 0))))
 (let ((?x2756 (ite (= 4 ?x241) (ite $x445 91 90) (ite (= 3 ?x241) (ite $x445 60 59) ?x1712))))
 (let ((?x650 (ite (= 6 ?x241) (ite $x445 152 151) (ite (= 5 ?x241) (ite $x445 121 120) ?x2756))))
 (let ((?x1215 (ite (= 8 ?x241) (ite $x445 213 212) (ite (= 7 ?x241) (ite $x445 182 181) ?x650))))
 (let ((?x1536 (ite (= 10 ?x241) (ite $x445 274 273) (ite (= 9 ?x241) (ite $x445 244 243) ?x1215))))
 (let ((?x2958 (ite (= 12 ?x241) (ite $x445 335 334) (ite (= 11 ?x241) (ite $x445 305 304) ?x1536))))
 (let ((?x264 (+ (* 365 (- (+ ?x98 (+ 0 (div ?x500 12))) 1)) (div (- (+ ?x98 (+ 0 (div ?x500 12))) 1) 4))))
 (let ((?x2374 (+ (- ?x264 (div (- (+ ?x98 (+ 0 (div ?x500 12))) 1) 100)) (div (- (+ ?x98 (+ 0 (div ?x500 12))) 1) 400))))
 (let ((?x260 (+ (+ (- (+ (+ ?x2374 ?x2958) (- ?x1252 1)) 730179) 0) 730179)))
 (let ((?x1900 (mod ?x260 146097)))
 (let ((?x2534 (div ?x1900 36524)))
 (let ((?x1277 (ite (<= 4 ?x2534) 3 ?x2534)))
 (let ((?x268 (- ?x1900 (* ?x1277 36524))))
 (let ((?x367 (mod ?x268 1461)))
 (let ((?x440 (div ?x367 365)))
 (let ((?x3332 (ite (<= 4 ?x440) 3 ?x440)))
 (let ((?x198 (+ (+ (* (div ?x260 146097) 400) (* ?x1277 100)) (* (div ?x268 1461) 4))))
 (let ((?x359 (+ (+ ?x198 ?x3332) 1)))
 (let ((?x637 (+ 0 (div ?x500 12))))
 (let ((?x267 (+ ?x98 ?x637)))
 (let (($x449 (= 0 0)))
 (let ((?x489 (ite $x449 ?x267 ?x359)))
 (= x_plus_year ?x489))))))))))))))))))))))))))))))))))))))))))))))))))))))))))))))))))))))))))))))
(assert
 (let ((?x730 (+ x_epoch 730179)))
 (let ((?x557 (mod ?x730 146097)))
 (let ((?x512 (div ?x557 36524)))
 (let ((?x218 (ite (<= 4 ?x512) 3 ?x512)))
 (let ((?x685 (- ?x557 (* ?x218 36524))))
 (let ((?x414 (mod ?x685 1461)))
 (let ((?x263 (div ?x414 365)))
 (let ((?x118 (ite (<= 4 ?x263) 3 ?x263)))
 (let ((?x410 (+ (+ (* (div ?x730 146097) 400) (* ?x218 100)) (* (div ?x685 1461) 4))))
 (let ((?x98 (+ (+ ?x410 ?x118) 1)))
 (let (($x339 (or (and (= (mod ?x98 4) 0) (and (distinct (mod ?x98 100) 0) true)) (= (mod ?x98 400) 0))))
 (let ((?x406 (- ?x414 (* ?x118 365))))
 (let ((?x465 (ite $x339 31 31)))
 (let (($x463 (>= ?x406 ?x465)))
 (let ((?x645 (ite $x463 (+ (- ?x406 ?x465) 1) (+ (- ?x406 (ite $x339 0 0)) 1))))
 (let ((?x729 (ite $x339 60 59)))
 (let (($x810 (>= ?x406 ?x729)))
 (let ((?x435 (ite $x339 91 90)))
 (let (($x673 (>= ?x406 ?x435)))
 (let ((?x701 (ite $x673 (+ (- ?x406 ?x435) 1) (ite $x810 (+ (- ?x406 ?x729) 1) ?x645))))
 (let ((?x1415 (ite $x339 121 120)))
 (let (($x451 (>= ?x406 ?x1415)))
 (let ((?x208 (ite $x339 152 151)))
 (let (($x325 (>= ?x406 ?x208)))
 (let ((?x175 (ite $x325 (+ (- ?x406 ?x208) 1) (ite $x451 (+ (- ?x406 ?x1415) 1) ?x701))))
 (let ((?x363 (ite $x339 182 181)))
 (let (($x320 (>= ?x406 ?x363)))
 (let ((?x508 (ite $x339 213 212)))
 (let (($x120 (>= ?x406 ?x508)))
 (let ((?x541 (ite $x120 (+ (- ?x406 ?x508) 1) (ite $x320 (+ (- ?x406 ?x363) 1) ?x175))))
 (let ((?x738 (ite $x339 244 243)))
 (let (($x434 (>= ?x406 ?x738)))
 (let ((?x452 (ite $x339 274 273)))
 (let (($x1015 (>= ?x406 ?x452)))
 (let ((?x532 (ite $x1015 (+ (- ?x406 ?x452) 1) (ite $x434 (+ (- ?x406 ?x738) 1) ?x541))))
 (let ((?x134 (ite $x339 305 304)))
 (let (($x272 (>= ?x406 ?x134)))
 (let ((?x758 (ite $x339 335 334)))
 (let (($x692 (>= ?x406 ?x758)))
 (let ((?x2113 (ite $x692 (+ (- ?x406 ?x758) 1) (ite $x272 (+ (- ?x406 ?x134) 1) ?x532))))
 (let ((?x2599 (+ (* 0 12) 1)))
 (let ((?x250 (ite $x451 5 (ite $x673 4 (ite $x810 3 (ite $x463 2 1))))))
 (let ((?x2483 (ite $x434 9 (ite $x120 8 (ite $x320 7 (ite $x325 6 ?x250))))))
 (let ((?x516 (ite $x692 12 (ite $x272 11 (ite $x1015 10 ?x2483)))))
 (let ((?x524 (+ ?x516 ?x2599)))
 (let ((?x500 (- ?x524 1)))
 (let ((?x241 (+ (mod ?x500 12) 1)))
 (let ((?x523 (ite (or (= ?x241 4) (= ?x241 6) (= ?x241 9) (= ?x241 11)) 30 31)))
 (let (($x2372 (and (= (mod (+ ?x98 (+ 0 (div ?x500 12))) 4) 0) (and (distinct (mod (+ ?x98 (+ 0 (div ?x500 12))) 100) 0) true))))
 (let (($x445 (or $x2372 (= (mod (+ ?x98 (+ 0 (div ?x500 12))) 400) 0))))
 (let ((?x663 (ite (= ?x241 2) (ite $x445 29 28) ?x523)))
 (let (($x707 (> 1 ?x2113)))
 (let ((?x194 (ite $x707 1 (ite (> ?x2113 ?x663) ?x663 ?x2113))))
 (let ((?x1252 (ite (> 1 ?x194) 1 (ite (> ?x194 ?x663) ?x663 ?x194))))
 (let ((?x1712 (ite (= 2 ?x241) (ite $x445 31 31) (ite (= 1 ?x241) (ite $x445 0 0) 0))))
 (let ((?x2756 (ite (= 4 ?x241) (ite $x445 91 90) (ite (= 3 ?x241) (ite $x445 60 59) ?x1712))))
 (let ((?x650 (ite (= 6 ?x241) (ite $x445 152 151) (ite (= 5 ?x241) (ite $x445 121 120) ?x2756))))
 (let ((?x1215 (ite (= 8 ?x241) (ite $x445 213 212) (ite (= 7 ?x241) (ite $x445 182 181) ?x650))))
 (let ((?x1536 (ite (= 10 ?x241) (ite $x445 274 273) (ite (= 9 ?x241) (ite $x445 244 243) ?x1215))))
 (let ((?x2958 (ite (= 12 ?x241) (ite $x445 335 334) (ite (= 11 ?x241) (ite $x445 305 304) ?x1536))))
 (let ((?x264 (+ (* 365 (- (+ ?x98 (+ 0 (div ?x500 12))) 1)) (div (- (+ ?x98 (+ 0 (div ?x500 12))) 1) 4))))
 (let ((?x2374 (+ (- ?x264 (div (- (+ ?x98 (+ 0 (div ?x500 12))) 1) 100)) (div (- (+ ?x98 (+ 0 (div ?x500 12))) 1) 400))))
 (let ((?x260 (+ (+ (- (+ (+ ?x2374 ?x2958) (- ?x1252 1)) 730179) 0) 730179)))
 (let ((?x1900 (mod ?x260 146097)))
 (let ((?x2534 (div ?x1900 36524)))
 (let ((?x1277 (ite (<= 4 ?x2534) 3 ?x2534)))
 (let ((?x268 (- ?x1900 (* ?x1277 36524))))
 (let ((?x367 (mod ?x268 1461)))
 (let ((?x440 (div ?x367 365)))
 (let ((?x3332 (ite (<= 4 ?x440) 3 ?x440)))
 (let ((?x198 (+ (+ (* (div ?x260 146097) 400) (* ?x1277 100)) (* (div ?x268 1461) 4))))
 (let ((?x359 (+ (+ ?x198 ?x3332) 1)))
 (let (($x3152 (or (and (= (mod ?x359 4) 0) (and (distinct (mod ?x359 100) 0) true)) (= (mod ?x359 400) 0))))
 (let ((?x3408 (ite $x3152 31 31)))
 (let ((?x317 (- ?x367 (* ?x3332 365))))
 (let (($x2941 (>= ?x317 ?x3408)))
 (let ((?x752 (ite $x3152 60 59)))
 (let (($x301 (>= ?x317 ?x752)))
 (let ((?x2335 (ite $x3152 91 90)))
 (let (($x1721 (>= ?x317 ?x2335)))
 (let ((?x2161 (ite $x3152 121 120)))
 (let (($x862 (>= ?x317 ?x2161)))
 (let ((?x2981 (ite $x862 5 (ite $x1721 4 (ite $x301 3 (ite $x2941 2 1))))))
 (let ((?x657 (ite $x3152 152 151)))
 (let (($x709 (>= ?x317 ?x657)))
 (let ((?x2172 (ite $x3152 182 181)))
 (let (($x809 (>= ?x317 ?x2172)))
 (let ((?x425 (ite $x3152 213 212)))
 (let (($x1725 (>= ?x317 ?x425)))
 (let ((?x2720 (ite $x3152 244 243)))
 (let (($x375 (>= ?x317 ?x2720)))
 (let ((?x400 (ite $x375 9 (ite $x1725 8 (ite $x809 7 (ite $x709 6 ?x2981))))))
 (let ((?x52 (ite $x3152 274 273)))
 (let (($x429 (>= ?x317 ?x52)))
 (let ((?x2902 (ite $x3152 305 304)))
 (let (($x337 (>= ?x317 ?x2902)))
 (let ((?x898 (ite $x3152 335 334)))
 (let (($x2678 (>= ?x317 ?x898)))
 (let (($x449 (= 0 0)))
 (let ((?x203 (ite $x449 ?x241 (ite $x2678 12 (ite $x337 11 (ite $x429 10 ?x400))))))
 (= x_plus_month ?x203))))))))))))))))))))))))))))))))))))))))))))))))))))))))))))))))))))))))))))))))))))))))))))))))))))))
(assert
 (let ((?x730 (+ x_epoch 730179)))
 (let ((?x557 (mod ?x730 146097)))
 (let ((?x512 (div ?x557 36524)))
 (let ((?x218 (ite (<= 4 ?x512) 3 ?x512)))
 (let ((?x685 (- ?x557 (* ?x218 36524))))
 (let ((?x414 (mod ?x685 1461)))
 (let ((?x263 (div ?x414 365)))
 (let ((?x118 (ite (<= 4 ?x263) 3 ?x263)))
 (let ((?x410 (+ (+ (* (div ?x730 146097) 400) (* ?x218 100)) (* (div ?x685 1461) 4))))
 (let ((?x98 (+ (+ ?x410 ?x118) 1)))
 (let (($x339 (or (and (= (mod ?x98 4) 0) (and (distinct (mod ?x98 100) 0) true)) (= (mod ?x98 400) 0))))
 (let ((?x406 (- ?x414 (* ?x118 365))))
 (let ((?x465 (ite $x339 31 31)))
 (let (($x463 (>= ?x406 ?x465)))
 (let ((?x645 (ite $x463 (+ (- ?x406 ?x465) 1) (+ (- ?x406 (ite $x339 0 0)) 1))))
 (let ((?x729 (ite $x339 60 59)))
 (let (($x810 (>= ?x406 ?x729)))
 (let ((?x435 (ite $x339 91 90)))
 (let (($x673 (>= ?x406 ?x435)))
 (let ((?x701 (ite $x673 (+ (- ?x406 ?x435) 1) (ite $x810 (+ (- ?x406 ?x729) 1) ?x645))))
 (let ((?x1415 (ite $x339 121 120)))
 (let (($x451 (>= ?x406 ?x1415)))
 (let ((?x208 (ite $x339 152 151)))
 (let (($x325 (>= ?x406 ?x208)))
 (let ((?x175 (ite $x325 (+ (- ?x406 ?x208) 1) (ite $x451 (+ (- ?x406 ?x1415) 1) ?x701))))
 (let ((?x363 (ite $x339 182 181)))
 (let (($x320 (>= ?x406 ?x363)))
 (let ((?x508 (ite $x339 213 212)))
 (let (($x120 (>= ?x406 ?x508)))
 (let ((?x541 (ite $x120 (+ (- ?x406 ?x508) 1) (ite $x320 (+ (- ?x406 ?x363) 1) ?x175))))
 (let ((?x738 (ite $x339 244 243)))
 (let (($x434 (>= ?x406 ?x738)))
 (let ((?x452 (ite $x339 274 273)))
 (let (($x1015 (>= ?x406 ?x452)))
 (let ((?x532 (ite $x1015 (+ (- ?x406 ?x452) 1) (ite $x434 (+ (- ?x406 ?x738) 1) ?x541))))
 (let ((?x134 (ite $x339 305 304)))
 (let (($x272 (>= ?x406 ?x134)))
 (let ((?x758 (ite $x339 335 334)))
 (let (($x692 (>= ?x406 ?x758)))
 (let ((?x2113 (ite $x692 (+ (- ?x406 ?x758) 1) (ite $x272 (+ (- ?x406 ?x134) 1) ?x532))))
 (let ((?x2599 (+ (* 0 12) 1)))
 (let ((?x250 (ite $x451 5 (ite $x673 4 (ite $x810 3 (ite $x463 2 1))))))
 (let ((?x2483 (ite $x434 9 (ite $x120 8 (ite $x320 7 (ite $x325 6 ?x250))))))
 (let ((?x516 (ite $x692 12 (ite $x272 11 (ite $x1015 10 ?x2483)))))
 (let ((?x524 (+ ?x516 ?x2599)))
 (let ((?x500 (- ?x524 1)))
 (let ((?x241 (+ (mod ?x500 12) 1)))
 (let ((?x523 (ite (or (= ?x241 4) (= ?x241 6) (= ?x241 9) (= ?x241 11)) 30 31)))
 (let (($x2372 (and (= (mod (+ ?x98 (+ 0 (div ?x500 12))) 4) 0) (and (distinct (mod (+ ?x98 (+ 0 (div ?x500 12))) 100) 0) true))))
 (let (($x445 (or $x2372 (= (mod (+ ?x98 (+ 0 (div ?x500 12))) 400) 0))))
 (let ((?x663 (ite (= ?x241 2) (ite $x445 29 28) ?x523)))
 (let (($x707 (> 1 ?x2113)))
 (let ((?x194 (ite $x707 1 (ite (> ?x2113 ?x663) ?x663 ?x2113))))
 (let ((?x1252 (ite (> 1 ?x194) 1 (ite (> ?x194 ?x663) ?x663 ?x194))))
 (let ((?x1712 (ite (= 2 ?x241) (ite $x445 31 31) (ite (= 1 ?x241) (ite $x445 0 0) 0))))
 (let ((?x2756 (ite (= 4 ?x241) (ite $x445 91 90) (ite (= 3 ?x241) (ite $x445 60 59) ?x1712))))
 (let ((?x650 (ite (= 6 ?x241) (ite $x445 152 151) (ite (= 5 ?x241) (ite $x445 121 120) ?x2756))))
 (let ((?x1215 (ite (= 8 ?x241) (ite $x445 213 212) (ite (= 7 ?x241) (ite $x445 182 181) ?x650))))
 (let ((?x1536 (ite (= 10 ?x241) (ite $x445 274 273) (ite (= 9 ?x241) (ite $x445 244 243) ?x1215))))
 (let ((?x2958 (ite (= 12 ?x241) (ite $x445 335 334) (ite (= 11 ?x241) (ite $x445 305 304) ?x1536))))
 (let ((?x264 (+ (* 365 (- (+ ?x98 (+ 0 (div ?x500 12))) 1)) (div (- (+ ?x98 (+ 0 (div ?x500 12))) 1) 4))))
 (let ((?x2374 (+ (- ?x264 (div (- (+ ?x98 (+ 0 (div ?x500 12))) 1) 100)) (div (- (+ ?x98 (+ 0 (div ?x500 12))) 1) 400))))
 (let ((?x260 (+ (+ (- (+ (+ ?x2374 ?x2958) (- ?x1252 1)) 730179) 0) 730179)))
 (let ((?x1900 (mod ?x260 146097)))
 (let ((?x2534 (div ?x1900 36524)))
 (let ((?x1277 (ite (<= 4 ?x2534) 3 ?x2534)))
 (let ((?x268 (- ?x1900 (* ?x1277 36524))))
 (let ((?x367 (mod ?x268 1461)))
 (let ((?x440 (div ?x367 365)))
 (let ((?x3332 (ite (<= 4 ?x440) 3 ?x440)))
 (let ((?x198 (+ (+ (* (div ?x260 146097) 400) (* ?x1277 100)) (* (div ?x268 1461) 4))))
 (let ((?x359 (+ (+ ?x198 ?x3332) 1)))
 (let (($x3152 (or (and (= (mod ?x359 4) 0) (and (distinct (mod ?x359 100) 0) true)) (= (mod ?x359 400) 0))))
 (let ((?x317 (- ?x367 (* ?x3332 365))))
 (let ((?x3408 (ite $x3152 31 31)))
 (let (($x2941 (>= ?x317 ?x3408)))
 (let ((?x1201 (ite $x2941 (+ (- ?x317 ?x3408) 1) (+ (- ?x317 (ite $x3152 0 0)) 1))))
 (let ((?x752 (ite $x3152 60 59)))
 (let (($x301 (>= ?x317 ?x752)))
 (let ((?x2335 (ite $x3152 91 90)))
 (let (($x1721 (>= ?x317 ?x2335)))
 (let ((?x477 (ite $x1721 (+ (- ?x317 ?x2335) 1) (ite $x301 (+ (- ?x317 ?x752) 1) ?x1201))))
 (let ((?x2161 (ite $x3152 121 120)))
 (let (($x862 (>= ?x317 ?x2161)))
 (let ((?x657 (ite $x3152 152 151)))
 (let (($x709 (>= ?x317 ?x657)))
 (let ((?x2610 (ite $x709 (+ (- ?x317 ?x657) 1) (ite $x862 (+ (- ?x317 ?x2161) 1) ?x477))))
 (let ((?x2172 (ite $x3152 182 181)))
 (let (($x809 (>= ?x317 ?x2172)))
 (let ((?x425 (ite $x3152 213 212)))
 (let (($x1725 (>= ?x317 ?x425)))
 (let ((?x1106 (ite $x1725 (+ (- ?x317 ?x425) 1) (ite $x809 (+ (- ?x317 ?x2172) 1) ?x2610))))
 (let ((?x2720 (ite $x3152 244 243)))
 (let (($x375 (>= ?x317 ?x2720)))
 (let ((?x52 (ite $x3152 274 273)))
 (let (($x429 (>= ?x317 ?x52)))
 (let ((?x2593 (ite $x429 (+ (- ?x317 ?x52) 1) (ite $x375 (+ (- ?x317 ?x2720) 1) ?x1106))))
 (let ((?x2902 (ite $x3152 305 304)))
 (let (($x337 (>= ?x317 ?x2902)))
 (let ((?x898 (ite $x3152 335 334)))
 (let (($x2678 (>= ?x317 ?x898)))
 (let ((?x191 (ite $x2678 (+ (- ?x317 ?x898) 1) (ite $x337 (+ (- ?x317 ?x2902) 1) ?x2593))))
 (let (($x449 (= 0 0)))
 (let ((?x1982 (ite $x449 ?x1252 ?x191)))
 (= x_plus_day ?x1982))))))))))))))))))))))))))))))))))))))))))))))))))))))))))))))))))))))))))))))))))))))))))))))))))))))))))
(assert
 (<= x_plus_epoch 8400))
(check-sat)
